sat
(:max-memory         18.05
 :memory             17.95
 :nlsat-decisions    1
 :nlsat-propagations 11
 :nlsat-stages       5
 :num-allocs         28321
 :rlimit-count       2371
 :time               0.00
 :total-time         0.01)
